558.31,67.44,77.02
556.74,67.63,77.24
580.02,64.91,74.14
553.73,68.0,77.66
585.76,64.28,73.41
538.8,69.88,79.81
578.59,65.08,74.32
549.38,68.54,78.27
572.46,65.77,75.12
581.99,64.7,73.89
645.27,58.35,66.64
567.9,66.3,75.72
562.27,66.96,76.48
593.2,63.47,72.49
548.8,68.61,78.36
571.79,65.85,75.21
542.19,69.44,79.31
578.65,65.07,74.31
617.29,61.0,69.66
613.65,61.36,70.08
